% Number of machines, tests, and resources
M = 10;
N = 20;
R = 3;

% Durations of the tests
durations = [424, 15, 266, 778, 435, 427, 173, 422, 255, 672, 328, 263, 655, 742, 364, 272, 472, 555, 19, 364];

% Machines each test can be assigned to (empty sets mean all machines are available)
machines = [
    {},           % t1
    {},           % t2
    {},           % t3
    {},           % t4
    {},           % t5
    {},           % t6
    {},           % t7
    {},           % t8
    {},           % t9
    {},           % t10
    {},           % t11
    {},           % t12
    {4, 7},       % t13
    {},           % t14
    {3, 8},       % t15
    {4},          % t16
    {},           % t17
    {},           % t18
    {},           % t19
    {}            % t20
];

% Resources each test uses (empty sets mean no resource constraints)
resources = [
    {},           % t1
    {},           % t2
    {},           % t3
    {},           % t4
    {},           % t5
    {1, 2, 3},    % t6
    {},           % t7
    {2, 3},       % t8
    {},           % t9
    {},           % t10
    {},           % t11
    {},           % t12
    {},           % t13
    {},           % t14
    {},           % t15
    {},           % t16
    {3},          % t17
    {1, 2, 3},    % t18
    {},           % t19
    {}            % t20
];
